40 40 40
50
22 25 18
28 35 7
15 1 7
8 21 33
3 2 32
34 34 34
23 26 3
23 26 28
4 13 8
31 5 9
22 26 27
34 21 9
30 20 6
17 13 15
27 33 27
7 27 18
30 10 27
12 22 5
29 13 21
9 24 18
13 23 8
4 3 27
14 12 31
5 16 19
29 17 28
28 30 35
13 26 18
16 10 13
4 23 6
24 2 30
33 26 30
20 12 32
12 21 15
9 23 6
12 28 8
7 7 2
17 22 10
24 6 14
4 26 16
23 29 20
14 5 28
7 4 29
11 8 21
21 19 12
24 25 5
29 34 24
33 12 25
15 3 33
29 30 12
24 1 13
